p cnf 10 17
-9 -2 -6 3 8 10 1 7 -4 0
-1 -5 3 8 0
6 1 0
5 -4 -2 8 10 -3 -7 -9 -6 1 0
-4 -6 7 5 8 9 0
-3 4 7 -5 -8 -1 0
2 7 -6 0
-5 -9 -8 -7 -1 -2 6 10 -3 0
8 4 5 -7 0
-3 -1 -6 -4 -9 -8 10 0
3 1 2 9 0
-9 7 -4 0
-3 -8 -7 -9 -4 2 -10 0
3 5 0
1 -9 10 -8 -3 -2 0
-7 -2 6 -4 0
-4 10 9 3 7 5 -6 -8 0
